column=8;
row=8;
max=5;
left=[2, 1, 2, 0, 5, 0, 3, 3];
right=[3, 4, 1, 5, 3, 0, 2, 1];
top=[2, 1, 5, 0, 0, 0, 2, 0];
bottom=[0, 5, 0, 0, 1, 0, 0, 2];
Board=[|0,0,5,0,4,1,0,3|0,1,0,5,3,0,2,4|0,0,0,0,0,4,0,1|0,3,4,0,2,0,0,0|0,4,2,0,0,3,0,0|4,2,1,3,0,0,5,0|0,0,3,0,1,0,4,2|3,5,0,0,0,2,0,0|]